20
18.0
0 19 1.22 0.58
1 18 1.29 0.57
2 17 1.18 0.61
3 16 1.26 0.57
4 15 1.09 0.55
5 14 1.14 0.57
6 13 1.22 0.57
7 12 1.35 0.58
8 11 1.12 0.63
9 10 1.09 0.53
10 9 1.24 0.56
11 8 1.2 0.57
12 7 1.2 0.57
13 6 1.12 0.63
14 5 1.06 0.58
15 4 1.09 0.56
16 3 1.44 0.5
17 2 1.34 0.58
18 1 0.75 0.76
